138
10000
293
1811
664
1452
4193
2041
2647
555
233
3146
1945
22
1876
2440
4633
4926
2379
2932
1166
1480
2882
873
4883
3351
3554
1761
67
1395
1549
3163
590
370
3436
833
1826
3273
76
980
769
649
3289
3382
1357
2553
2656
1421
2279
4243
2653
2832
1731
3295
2345
1399
3440
2426
2085
4
1038
2146
1389
711
3520
3208
1123
1046
2071
132
2923
3758
4350
3789
3799
2380
3468
968
1463
1618
4868
2784
4748
311
2737
3580
673
2191
821
3223
1519
820
2451
1097
3300
2206
1223
3340
2556
2782
217
711
3930
3735
1529
2341
2311
1093
2957
1231
1685
1077
4105
73
301
2059
459
1794
1559
4131
2498
2317
3544
1886
4860
9
4404
2829
1054
3627
1135
2764
1333
3391
901
3159
4847
2629
2749
132
